; benchmark generated from python API
(set-info :status unknown)
(declare-fun cell_1_7 () Int)
(declare-fun cell_1_8 () Int)
(declare-fun cell_2_2 () Int)
(declare-fun cell_2_3 () Int)
(declare-fun cell_3_5 () Int)
(declare-fun cell_3_6 () Int)
(declare-fun cell_4_1 () Int)
(declare-fun cell_4_2 () Int)
(declare-fun cell_5_7 () Int)
(declare-fun cell_5_9 () Int)
(declare-fun cell_6_4 () Int)
(declare-fun cell_6_6 () Int)
(declare-fun cell_7_1 () Int)
(declare-fun cell_7_5 () Int)
(declare-fun cell_8_4 () Int)
(declare-fun cell_9_9 () Int)
(declare-fun cell_1_1 () Int)
(declare-fun cell_2_1 () Int)
(declare-fun cell_3_1 () Int)
(declare-fun cell_5_1 () Int)
(declare-fun cell_6_1 () Int)
(declare-fun cell_8_1 () Int)
(declare-fun cell_9_1 () Int)
(declare-fun cell_1_2 () Int)
(declare-fun cell_3_2 () Int)
(declare-fun cell_5_2 () Int)
(declare-fun cell_6_2 () Int)
(declare-fun cell_7_2 () Int)
(declare-fun cell_8_2 () Int)
(declare-fun cell_9_2 () Int)
(declare-fun cell_1_3 () Int)
(declare-fun cell_3_3 () Int)
(declare-fun cell_4_3 () Int)
(declare-fun cell_5_3 () Int)
(declare-fun cell_6_3 () Int)
(declare-fun cell_7_3 () Int)
(declare-fun cell_8_3 () Int)
(declare-fun cell_9_3 () Int)
(declare-fun cell_1_4 () Int)
(declare-fun cell_2_4 () Int)
(declare-fun cell_3_4 () Int)
(declare-fun cell_4_4 () Int)
(declare-fun cell_5_4 () Int)
(declare-fun cell_7_4 () Int)
(declare-fun cell_9_4 () Int)
(declare-fun cell_1_5 () Int)
(declare-fun cell_2_5 () Int)
(declare-fun cell_4_5 () Int)
(declare-fun cell_5_5 () Int)
(declare-fun cell_6_5 () Int)
(declare-fun cell_8_5 () Int)
(declare-fun cell_9_5 () Int)
(declare-fun cell_1_6 () Int)
(declare-fun cell_2_6 () Int)
(declare-fun cell_4_6 () Int)
(declare-fun cell_5_6 () Int)
(declare-fun cell_7_6 () Int)
(declare-fun cell_8_6 () Int)
(declare-fun cell_9_6 () Int)
(declare-fun cell_2_7 () Int)
(declare-fun cell_3_7 () Int)
(declare-fun cell_4_7 () Int)
(declare-fun cell_6_7 () Int)
(declare-fun cell_7_7 () Int)
(declare-fun cell_8_7 () Int)
(declare-fun cell_9_7 () Int)
(declare-fun cell_2_8 () Int)
(declare-fun cell_3_8 () Int)
(declare-fun cell_4_8 () Int)
(declare-fun cell_5_8 () Int)
(declare-fun cell_6_8 () Int)
(declare-fun cell_7_8 () Int)
(declare-fun cell_8_8 () Int)
(declare-fun cell_9_8 () Int)
(declare-fun cell_1_9 () Int)
(declare-fun cell_2_9 () Int)
(declare-fun cell_3_9 () Int)
(declare-fun cell_4_9 () Int)
(declare-fun cell_6_9 () Int)
(declare-fun cell_7_9 () Int)
(declare-fun cell_8_9 () Int)
(assert
 (= cell_1_7 2))
(assert
 (= cell_1_8 1))
(assert
 (= cell_2_2 2))
(assert
 (= cell_2_3 1))
(assert
 (= cell_3_5 1))
(assert
 (= cell_3_6 2))
(assert
 (= cell_4_1 2))
(assert
 (= cell_4_2 1))
(assert
 (= cell_5_7 1))
(assert
 (= cell_5_9 2))
(assert
 (= cell_6_4 2))
(assert
 (= cell_6_6 1))
(assert
 (= cell_7_1 1))
(assert
 (= cell_7_5 2))
(assert
 (= cell_8_4 1))
(assert
 (= cell_9_9 1))
(assert
 (let (($x89 (= cell_1_1 9)))
 (let (($x3088 (= cell_1_1 8)))
 (let (($x2321 (= cell_1_1 7)))
 (let (($x2385 (= cell_1_1 6)))
 (let (($x3827 (= cell_1_1 5)))
 (let (($x3478 (= cell_1_1 4)))
 (let (($x1069 (= cell_1_1 3)))
 (let (($x7825 (= cell_1_1 2)))
 (let (($x2041 (= cell_1_1 1)))
 (or $x2041 $x7825 $x1069 $x3478 $x3827 $x2385 $x2321 $x3088 $x89)))))))))))
(assert
 (let (($x3731 (= cell_2_1 9)))
 (let (($x2649 (= cell_2_1 8)))
 (let (($x971 (= cell_2_1 7)))
 (let (($x2352 (= cell_2_1 6)))
 (let (($x303 (= cell_2_1 5)))
 (let (($x1354 (= cell_2_1 4)))
 (let (($x3460 (= cell_2_1 3)))
 (let (($x6699 (= cell_2_1 2)))
 (let (($x4003 (= cell_2_1 1)))
 (or $x4003 $x6699 $x3460 $x1354 $x303 $x2352 $x971 $x2649 $x3731)))))))))))
(assert
 (let (($x186 (= cell_3_1 9)))
 (let (($x1119 (= cell_3_1 8)))
 (let (($x2064 (= cell_3_1 7)))
 (let (($x1935 (= cell_3_1 6)))
 (let (($x3560 (= cell_3_1 5)))
 (let (($x1535 (= cell_3_1 4)))
 (let (($x1344 (= cell_3_1 3)))
 (let (($x1815 (= cell_3_1 2)))
 (let (($x1322 (= cell_3_1 1)))
 (or $x1322 $x1815 $x1344 $x1535 $x3560 $x1935 $x2064 $x1119 $x186)))))))))))
(assert
 (let (($x4045 (= cell_4_1 2)))
 (or (= cell_4_1 1) $x4045 (= cell_4_1 3) (= cell_4_1 4) (= cell_4_1 5) (= cell_4_1 6) (= cell_4_1 7) (= cell_4_1 8) (= cell_4_1 9))))
(assert
 (let (($x1978 (= cell_5_1 9)))
 (let (($x7428 (= cell_5_1 8)))
 (let (($x1986 (= cell_5_1 7)))
 (let (($x3077 (= cell_5_1 6)))
 (let (($x3947 (= cell_5_1 5)))
 (let (($x576 (= cell_5_1 4)))
 (let (($x6701 (= cell_5_1 3)))
 (let (($x3849 (= cell_5_1 2)))
 (let (($x3451 (= cell_5_1 1)))
 (or $x3451 $x3849 $x6701 $x576 $x3947 $x3077 $x1986 $x7428 $x1978)))))))))))
(assert
 (let (($x1438 (= cell_6_1 9)))
 (let (($x2606 (= cell_6_1 8)))
 (let (($x2496 (= cell_6_1 7)))
 (let (($x871 (= cell_6_1 6)))
 (let (($x2882 (= cell_6_1 5)))
 (let (($x1037 (= cell_6_1 4)))
 (let (($x1943 (= cell_6_1 3)))
 (let (($x436 (= cell_6_1 2)))
 (let (($x2418 (= cell_6_1 1)))
 (or $x2418 $x436 $x1943 $x1037 $x2882 $x871 $x2496 $x2606 $x1438)))))))))))
(assert
 (let (($x1454 (= cell_7_1 1)))
 (or $x1454 (= cell_7_1 2) (= cell_7_1 3) (= cell_7_1 4) (= cell_7_1 5) (= cell_7_1 6) (= cell_7_1 7) (= cell_7_1 8) (= cell_7_1 9))))
(assert
 (let (($x7319 (= cell_8_1 9)))
 (let (($x1822 (= cell_8_1 8)))
 (let (($x3336 (= cell_8_1 7)))
 (let (($x2272 (= cell_8_1 6)))
 (let (($x3832 (= cell_8_1 5)))
 (let (($x3244 (= cell_8_1 4)))
 (let (($x1932 (= cell_8_1 3)))
 (let (($x580 (= cell_8_1 2)))
 (let (($x131 (= cell_8_1 1)))
 (or $x131 $x580 $x1932 $x3244 $x3832 $x2272 $x3336 $x1822 $x7319)))))))))))
(assert
 (let (($x164 (= cell_9_1 9)))
 (let (($x2413 (= cell_9_1 8)))
 (let (($x3821 (= cell_9_1 7)))
 (let (($x1450 (= cell_9_1 6)))
 (let (($x3326 (= cell_9_1 5)))
 (let (($x1551 (= cell_9_1 4)))
 (let (($x2243 (= cell_9_1 3)))
 (let (($x997 (= cell_9_1 2)))
 (let (($x1826 (= cell_9_1 1)))
 (or $x1826 $x997 $x2243 $x1551 $x3326 $x1450 $x3821 $x2413 $x164)))))))))))
(assert
 (let (($x353 (= cell_1_2 9)))
 (let (($x1894 (= cell_1_2 8)))
 (let (($x3547 (= cell_1_2 7)))
 (let (($x817 (= cell_1_2 6)))
 (let (($x500 (= cell_1_2 5)))
 (let (($x3855 (= cell_1_2 4)))
 (let (($x8011 (= cell_1_2 3)))
 (let (($x2436 (= cell_1_2 2)))
 (let (($x1456 (= cell_1_2 1)))
 (or $x1456 $x2436 $x8011 $x3855 $x500 $x817 $x3547 $x1894 $x353)))))))))))
(assert
 (let (($x2630 (= cell_2_2 2)))
 (or (= cell_2_2 1) $x2630 (= cell_2_2 3) (= cell_2_2 4) (= cell_2_2 5) (= cell_2_2 6) (= cell_2_2 7) (= cell_2_2 8) (= cell_2_2 9))))
(assert
 (let (($x2934 (= cell_3_2 9)))
 (let (($x2494 (= cell_3_2 8)))
 (let (($x1854 (= cell_3_2 7)))
 (let (($x1598 (= cell_3_2 6)))
 (let (($x2881 (= cell_3_2 5)))
 (let (($x1729 (= cell_3_2 4)))
 (let (($x7382 (= cell_3_2 3)))
 (let (($x4050 (= cell_3_2 2)))
 (let (($x842 (= cell_3_2 1)))
 (or $x842 $x4050 $x7382 $x1729 $x2881 $x1598 $x1854 $x2494 $x2934)))))))))))
(assert
 (let (($x7514 (= cell_4_2 1)))
 (or $x7514 (= cell_4_2 2) (= cell_4_2 3) (= cell_4_2 4) (= cell_4_2 5) (= cell_4_2 6) (= cell_4_2 7) (= cell_4_2 8) (= cell_4_2 9))))
(assert
 (let (($x1003 (= cell_5_2 9)))
 (let (($x2425 (= cell_5_2 8)))
 (let (($x35 (= cell_5_2 7)))
 (let (($x276 (= cell_5_2 6)))
 (let (($x2617 (= cell_5_2 5)))
 (let (($x1159 (= cell_5_2 4)))
 (let (($x7486 (= cell_5_2 3)))
 (let (($x2082 (= cell_5_2 2)))
 (let (($x1847 (= cell_5_2 1)))
 (or $x1847 $x2082 $x7486 $x1159 $x2617 $x276 $x35 $x2425 $x1003)))))))))))
(assert
 (let (($x2007 (= cell_6_2 9)))
 (let (($x549 (= cell_6_2 8)))
 (let (($x1866 (= cell_6_2 7)))
 (let (($x761 (= cell_6_2 6)))
 (let (($x1075 (= cell_6_2 5)))
 (let (($x1654 (= cell_6_2 4)))
 (let (($x2100 (= cell_6_2 3)))
 (let (($x1750 (= cell_6_2 2)))
 (let (($x1238 (= cell_6_2 1)))
 (or $x1238 $x1750 $x2100 $x1654 $x1075 $x761 $x1866 $x549 $x2007)))))))))))
(assert
 (let (($x7260 (= cell_7_2 9)))
 (let (($x155 (= cell_7_2 8)))
 (let (($x3703 (= cell_7_2 7)))
 (let (($x2183 (= cell_7_2 6)))
 (let (($x919 (= cell_7_2 5)))
 (let (($x1962 (= cell_7_2 4)))
 (let (($x2139 (= cell_7_2 3)))
 (let (($x3434 (= cell_7_2 2)))
 (let (($x1968 (= cell_7_2 1)))
 (or $x1968 $x3434 $x2139 $x1962 $x919 $x2183 $x3703 $x155 $x7260)))))))))))
(assert
 (let (($x352 (= cell_8_2 9)))
 (let (($x1636 (= cell_8_2 8)))
 (let (($x2323 (= cell_8_2 7)))
 (let (($x1532 (= cell_8_2 6)))
 (let (($x745 (= cell_8_2 5)))
 (let (($x6951 (= cell_8_2 4)))
 (let (($x3919 (= cell_8_2 3)))
 (let (($x991 (= cell_8_2 2)))
 (let (($x3048 (= cell_8_2 1)))
 (or $x3048 $x991 $x3919 $x6951 $x745 $x1532 $x2323 $x1636 $x352)))))))))))
(assert
 (let (($x2328 (= cell_9_2 9)))
 (let (($x44 (= cell_9_2 8)))
 (let (($x4133 (= cell_9_2 7)))
 (let (($x935 (= cell_9_2 6)))
 (let (($x459 (= cell_9_2 5)))
 (let (($x1936 (= cell_9_2 4)))
 (let (($x323 (= cell_9_2 3)))
 (let (($x2503 (= cell_9_2 2)))
 (let (($x1278 (= cell_9_2 1)))
 (or $x1278 $x2503 $x323 $x1936 $x459 $x935 $x4133 $x44 $x2328)))))))))))
(assert
 (let (($x1742 (= cell_1_3 9)))
 (let (($x2647 (= cell_1_3 8)))
 (let (($x4054 (= cell_1_3 7)))
 (let (($x3354 (= cell_1_3 6)))
 (let (($x3550 (= cell_1_3 5)))
 (let (($x364 (= cell_1_3 4)))
 (let (($x3830 (= cell_1_3 3)))
 (let (($x1862 (= cell_1_3 2)))
 (let (($x7884 (= cell_1_3 1)))
 (or $x7884 $x1862 $x3830 $x364 $x3550 $x3354 $x4054 $x2647 $x1742)))))))))))
(assert
 (let (($x592 (= cell_2_3 1)))
 (or $x592 (= cell_2_3 2) (= cell_2_3 3) (= cell_2_3 4) (= cell_2_3 5) (= cell_2_3 6) (= cell_2_3 7) (= cell_2_3 8) (= cell_2_3 9))))
(assert
 (let (($x2044 (= cell_3_3 9)))
 (let (($x3375 (= cell_3_3 8)))
 (let (($x830 (= cell_3_3 7)))
 (let (($x1755 (= cell_3_3 6)))
 (let (($x673 (= cell_3_3 5)))
 (let (($x2861 (= cell_3_3 4)))
 (let (($x2645 (= cell_3_3 3)))
 (let (($x1130 (= cell_3_3 2)))
 (let (($x1961 (= cell_3_3 1)))
 (or $x1961 $x1130 $x2645 $x2861 $x673 $x1755 $x830 $x3375 $x2044)))))))))))
(assert
 (let (($x332 (= cell_4_3 2)))
 (let (($x1471 (= cell_4_3 1)))
 (or $x1471 $x332 (= cell_4_3 3) (= cell_4_3 4) (= cell_4_3 5) (= cell_4_3 6) (= cell_4_3 7) (= cell_4_3 8) (= cell_4_3 9)))))
(assert
 (let (($x2863 (= cell_5_3 9)))
 (let (($x1652 (= cell_5_3 8)))
 (let (($x2828 (= cell_5_3 7)))
 (let (($x3045 (= cell_5_3 6)))
 (let (($x564 (= cell_5_3 5)))
 (let (($x3263 (= cell_5_3 4)))
 (let (($x2420 (= cell_5_3 3)))
 (let (($x2318 (= cell_5_3 2)))
 (let (($x4049 (= cell_5_3 1)))
 (or $x4049 $x2318 $x2420 $x3263 $x564 $x3045 $x2828 $x1652 $x2863)))))))))))
(assert
 (let (($x3295 (= cell_6_3 9)))
 (let (($x7076 (= cell_6_3 8)))
 (let (($x822 (= cell_6_3 7)))
 (let (($x846 (= cell_6_3 6)))
 (let (($x1749 (= cell_6_3 5)))
 (let (($x1627 (= cell_6_3 4)))
 (let (($x2052 (= cell_6_3 3)))
 (let (($x3557 (= cell_6_3 2)))
 (let (($x1797 (= cell_6_3 1)))
 (or $x1797 $x3557 $x2052 $x1627 $x1749 $x846 $x822 $x7076 $x3295)))))))))))
(assert
 (let (($x99 (= cell_7_3 9)))
 (let (($x1157 (= cell_7_3 8)))
 (let (($x3627 (= cell_7_3 7)))
 (let (($x2762 (= cell_7_3 6)))
 (let (($x295 (= cell_7_3 5)))
 (let (($x2532 (= cell_7_3 4)))
 (let (($x1105 (= cell_7_3 3)))
 (let (($x2692 (= cell_7_3 2)))
 (let (($x2038 (= cell_7_3 1)))
 (or $x2038 $x2692 $x1105 $x2532 $x295 $x2762 $x3627 $x1157 $x99)))))))))))
(assert
 (let (($x2485 (= cell_8_3 9)))
 (let (($x677 (= cell_8_3 8)))
 (let (($x7783 (= cell_8_3 7)))
 (let (($x1568 (= cell_8_3 6)))
 (let (($x1758 (= cell_8_3 5)))
 (let (($x2347 (= cell_8_3 4)))
 (let (($x7838 (= cell_8_3 3)))
 (let (($x3082 (= cell_8_3 2)))
 (let (($x2472 (= cell_8_3 1)))
 (or $x2472 $x3082 $x7838 $x2347 $x1758 $x1568 $x7783 $x677 $x2485)))))))))))
(assert
 (let (($x1601 (= cell_9_3 9)))
 (let (($x1933 (= cell_9_3 8)))
 (let (($x1733 (= cell_9_3 7)))
 (let (($x2973 (= cell_9_3 6)))
 (let (($x881 (= cell_9_3 5)))
 (let (($x735 (= cell_9_3 4)))
 (let (($x3172 (= cell_9_3 3)))
 (let (($x6721 (= cell_9_3 2)))
 (let (($x2720 (= cell_9_3 1)))
 (or $x2720 $x6721 $x3172 $x735 $x881 $x2973 $x1733 $x1933 $x1601)))))))))))
(assert
 (let (($x563 (= cell_1_4 9)))
 (let (($x10 (= cell_1_4 8)))
 (let (($x874 (= cell_1_4 7)))
 (let (($x446 (= cell_1_4 6)))
 (let (($x642 (= cell_1_4 5)))
 (let (($x2709 (= cell_1_4 4)))
 (let (($x3892 (= cell_1_4 3)))
 (let (($x1166 (= cell_1_4 2)))
 (let (($x7758 (= cell_1_4 1)))
 (or $x7758 $x1166 $x3892 $x2709 $x642 $x446 $x874 $x10 $x563)))))))))))
(assert
 (let (($x3674 (= cell_2_4 9)))
 (let (($x2556 (= cell_2_4 8)))
 (let (($x2254 (= cell_2_4 7)))
 (let (($x2634 (= cell_2_4 6)))
 (let (($x2039 (= cell_2_4 5)))
 (let (($x2222 (= cell_2_4 4)))
 (let (($x1702 (= cell_2_4 3)))
 (let (($x2858 (= cell_2_4 2)))
 (let (($x1678 (= cell_2_4 1)))
 (or $x1678 $x2858 $x1702 $x2222 $x2039 $x2634 $x2254 $x2556 $x3674)))))))))))
(assert
 (let (($x1600 (= cell_3_4 9)))
 (let (($x3996 (= cell_3_4 8)))
 (let (($x1257 (= cell_3_4 7)))
 (let (($x2228 (= cell_3_4 6)))
 (let (($x118 (= cell_3_4 5)))
 (let (($x3400 (= cell_3_4 4)))
 (let (($x457 (= cell_3_4 3)))
 (let (($x2130 (= cell_3_4 2)))
 (let (($x1651 (= cell_3_4 1)))
 (or $x1651 $x2130 $x457 $x3400 $x118 $x2228 $x1257 $x3996 $x1600)))))))))))
(assert
 (let (($x6865 (= cell_4_4 9)))
 (let (($x723 (= cell_4_4 8)))
 (let (($x1018 (= cell_4_4 7)))
 (let (($x1548 (= cell_4_4 6)))
 (let (($x3462 (= cell_4_4 5)))
 (let (($x1789 (= cell_4_4 4)))
 (let (($x3843 (= cell_4_4 3)))
 (let (($x7326 (= cell_4_4 2)))
 (let (($x3760 (= cell_4_4 1)))
 (or $x3760 $x7326 $x3843 $x1789 $x3462 $x1548 $x1018 $x723 $x6865)))))))))))
(assert
 (let (($x7814 (= cell_5_4 9)))
 (let (($x1674 (= cell_5_4 8)))
 (let (($x3780 (= cell_5_4 7)))
 (let (($x2962 (= cell_5_4 6)))
 (let (($x1550 (= cell_5_4 5)))
 (let (($x2493 (= cell_5_4 4)))
 (let (($x1543 (= cell_5_4 3)))
 (let (($x1499 (= cell_5_4 2)))
 (let (($x614 (= cell_5_4 1)))
 (or $x614 $x1499 $x1543 $x2493 $x1550 $x2962 $x3780 $x1674 $x7814)))))))))))
(assert
 (let (($x7439 (= cell_6_4 2)))
 (or (= cell_6_4 1) $x7439 (= cell_6_4 3) (= cell_6_4 4) (= cell_6_4 5) (= cell_6_4 6) (= cell_6_4 7) (= cell_6_4 8) (= cell_6_4 9))))
(assert
 (let (($x2407 (= cell_7_4 9)))
 (let (($x2186 (= cell_7_4 8)))
 (let (($x7683 (= cell_7_4 7)))
 (let (($x2370 (= cell_7_4 6)))
 (let (($x1222 (= cell_7_4 5)))
 (let (($x4180 (= cell_7_4 4)))
 (let (($x2108 (= cell_7_4 3)))
 (let (($x125 (= cell_7_4 2)))
 (let (($x848 (= cell_7_4 1)))
 (or $x848 $x125 $x2108 $x4180 $x1222 $x2370 $x7683 $x2186 $x2407)))))))))))
(assert
 (let (($x3456 (= cell_8_4 1)))
 (or $x3456 (= cell_8_4 2) (= cell_8_4 3) (= cell_8_4 4) (= cell_8_4 5) (= cell_8_4 6) (= cell_8_4 7) (= cell_8_4 8) (= cell_8_4 9))))
(assert
 (let (($x1055 (= cell_9_4 9)))
 (let (($x3459 (= cell_9_4 8)))
 (let (($x361 (= cell_9_4 7)))
 (let (($x4044 (= cell_9_4 6)))
 (let (($x2406 (= cell_9_4 5)))
 (let (($x1338 (= cell_9_4 4)))
 (let (($x2304 (= cell_9_4 3)))
 (let (($x3080 (= cell_9_4 2)))
 (let (($x608 (= cell_9_4 1)))
 (or $x608 $x3080 $x2304 $x1338 $x2406 $x4044 $x361 $x3459 $x1055)))))))))))
(assert
 (let (($x1802 (= cell_1_5 9)))
 (let (($x1224 (= cell_1_5 8)))
 (let (($x3437 (= cell_1_5 7)))
 (let (($x1118 (= cell_1_5 6)))
 (let (($x7661 (= cell_1_5 5)))
 (let (($x3976 (= cell_1_5 4)))
 (let (($x776 (= cell_1_5 3)))
 (let (($x525 (= cell_1_5 2)))
 (let (($x6906 (= cell_1_5 1)))
 (or $x6906 $x525 $x776 $x3976 $x7661 $x1118 $x3437 $x1224 $x1802)))))))))))
(assert
 (let (($x1203 (= cell_2_5 9)))
 (let (($x1394 (= cell_2_5 8)))
 (let (($x795 (= cell_2_5 7)))
 (let (($x3463 (= cell_2_5 6)))
 (let (($x1048 (= cell_2_5 5)))
 (let (($x2314 (= cell_2_5 4)))
 (let (($x3619 (= cell_2_5 3)))
 (let (($x1463 (= cell_2_5 2)))
 (let (($x3139 (= cell_2_5 1)))
 (or $x3139 $x1463 $x3619 $x2314 $x1048 $x3463 $x795 $x1394 $x1203)))))))))))
(assert
 (let (($x1370 (= cell_3_5 1)))
 (or $x1370 (= cell_3_5 2) (= cell_3_5 3) (= cell_3_5 4) (= cell_3_5 5) (= cell_3_5 6) (= cell_3_5 7) (= cell_3_5 8) (= cell_3_5 9))))
(assert
 (let (($x1615 (= cell_4_5 9)))
 (let (($x2599 (= cell_4_5 8)))
 (let (($x133 (= cell_4_5 7)))
 (let (($x1913 (= cell_4_5 6)))
 (let (($x2829 (= cell_4_5 5)))
 (let (($x7673 (= cell_4_5 4)))
 (let (($x3429 (= cell_4_5 3)))
 (let (($x2421 (= cell_4_5 2)))
 (let (($x1527 (= cell_4_5 1)))
 (or $x1527 $x2421 $x3429 $x7673 $x2829 $x1913 $x133 $x2599 $x1615)))))))))))
(assert
 (let (($x2867 (= cell_5_5 9)))
 (let (($x3743 (= cell_5_5 8)))
 (let (($x799 (= cell_5_5 7)))
 (let (($x2429 (= cell_5_5 6)))
 (let (($x395 (= cell_5_5 5)))
 (let (($x3916 (= cell_5_5 4)))
 (let (($x2785 (= cell_5_5 3)))
 (let (($x4158 (= cell_5_5 2)))
 (let (($x7844 (= cell_5_5 1)))
 (or $x7844 $x4158 $x2785 $x3916 $x395 $x2429 $x799 $x3743 $x2867)))))))))))
(assert
 (let (($x1792 (= cell_6_5 9)))
 (let (($x1197 (= cell_6_5 8)))
 (let (($x1630 (= cell_6_5 7)))
 (let (($x1741 (= cell_6_5 6)))
 (let (($x6722 (= cell_6_5 5)))
 (let (($x2029 (= cell_6_5 4)))
 (let (($x565 (= cell_6_5 3)))
 (let (($x2657 (= cell_6_5 2)))
 (let (($x2310 (= cell_6_5 1)))
 (or $x2310 $x2657 $x565 $x2029 $x6722 $x1741 $x1630 $x1197 $x1792)))))))))))
(assert
 (let (($x2010 (= cell_7_5 2)))
 (or (= cell_7_5 1) $x2010 (= cell_7_5 3) (= cell_7_5 4) (= cell_7_5 5) (= cell_7_5 6) (= cell_7_5 7) (= cell_7_5 8) (= cell_7_5 9))))
(assert
 (let (($x7519 (= cell_8_5 2)))
 (let (($x1219 (= cell_8_5 1)))
 (or $x1219 $x7519 (= cell_8_5 3) (= cell_8_5 4) (= cell_8_5 5) (= cell_8_5 6) (= cell_8_5 7) (= cell_8_5 8) (= cell_8_5 9)))))
(assert
 (let (($x409 (= cell_9_5 9)))
 (let (($x59 (= cell_9_5 8)))
 (let (($x2575 (= cell_9_5 7)))
 (let (($x30 (= cell_9_5 6)))
 (let (($x1168 (= cell_9_5 5)))
 (let (($x1810 (= cell_9_5 4)))
 (let (($x2302 (= cell_9_5 3)))
 (let (($x3701 (= cell_9_5 2)))
 (let (($x876 (= cell_9_5 1)))
 (or $x876 $x3701 $x2302 $x1810 $x1168 $x30 $x2575 $x59 $x409)))))))))))
(assert
 (let (($x1348 (= cell_1_6 9)))
 (let (($x3175 (= cell_1_6 8)))
 (let (($x962 (= cell_1_6 7)))
 (let (($x3050 (= cell_1_6 6)))
 (let (($x878 (= cell_1_6 5)))
 (let (($x2737 (= cell_1_6 4)))
 (let (($x6859 (= cell_1_6 3)))
 (let (($x406 (= cell_1_6 2)))
 (let (($x1850 (= cell_1_6 1)))
 (or $x1850 $x406 $x6859 $x2737 $x878 $x3050 $x962 $x3175 $x1348)))))))))))
(assert
 (let (($x2707 (= cell_2_6 9)))
 (let (($x3165 (= cell_2_6 8)))
 (let (($x3847 (= cell_2_6 7)))
 (let (($x4089 (= cell_2_6 6)))
 (let (($x3580 (= cell_2_6 5)))
 (let (($x1448 (= cell_2_6 4)))
 (let (($x1262 (= cell_2_6 3)))
 (let (($x1094 (= cell_2_6 2)))
 (let (($x150 (= cell_2_6 1)))
 (or $x150 $x1094 $x1262 $x1448 $x3580 $x4089 $x3847 $x3165 $x2707)))))))))))
(assert
 (let (($x1589 (= cell_3_6 2)))
 (or (= cell_3_6 1) $x1589 (= cell_3_6 3) (= cell_3_6 4) (= cell_3_6 5) (= cell_3_6 6) (= cell_3_6 7) (= cell_3_6 8) (= cell_3_6 9))))
(assert
 (let (($x373 (= cell_4_6 9)))
 (let (($x981 (= cell_4_6 8)))
 (let (($x644 (= cell_4_6 7)))
 (let (($x2084 (= cell_4_6 6)))
 (let (($x946 (= cell_4_6 5)))
 (let (($x3854 (= cell_4_6 4)))
 (let (($x402 (= cell_4_6 3)))
 (let (($x895 (= cell_4_6 2)))
 (let (($x3903 (= cell_4_6 1)))
 (or $x3903 $x895 $x402 $x3854 $x946 $x2084 $x644 $x981 $x373)))))))))))
(assert
 (let (($x2218 (= cell_5_6 9)))
 (let (($x655 (= cell_5_6 8)))
 (let (($x1271 (= cell_5_6 7)))
 (let (($x2454 (= cell_5_6 6)))
 (let (($x606 (= cell_5_6 5)))
 (let (($x519 (= cell_5_6 4)))
 (let (($x2305 (= cell_5_6 3)))
 (let (($x7322 (= cell_5_6 2)))
 (let (($x2772 (= cell_5_6 1)))
 (or $x2772 $x7322 $x2305 $x519 $x606 $x2454 $x1271 $x655 $x2218)))))))))))
(assert
 (let (($x1518 (= cell_6_6 1)))
 (or $x1518 (= cell_6_6 2) (= cell_6_6 3) (= cell_6_6 4) (= cell_6_6 5) (= cell_6_6 6) (= cell_6_6 7) (= cell_6_6 8) (= cell_6_6 9))))
(assert
 (let (($x590 (= cell_7_6 9)))
 (let (($x548 (= cell_7_6 8)))
 (let (($x2198 (= cell_7_6 7)))
 (let (($x1071 (= cell_7_6 6)))
 (let (($x4238 (= cell_7_6 5)))
 (let (($x7483 (= cell_7_6 4)))
 (let (($x2896 (= cell_7_6 3)))
 (let (($x866 (= cell_7_6 2)))
 (let (($x3867 (= cell_7_6 1)))
 (or $x3867 $x866 $x2896 $x7483 $x4238 $x1071 $x2198 $x548 $x590)))))))))))
(assert
 (let (($x8019 (= cell_8_6 2)))
 (let (($x2481 (= cell_8_6 1)))
 (or $x2481 $x8019 (= cell_8_6 3) (= cell_8_6 4) (= cell_8_6 5) (= cell_8_6 6) (= cell_8_6 7) (= cell_8_6 8) (= cell_8_6 9)))))
(assert
 (let (($x2393 (= cell_9_6 9)))
 (let (($x1832 (= cell_9_6 8)))
 (let (($x575 (= cell_9_6 7)))
 (let (($x6577 (= cell_9_6 6)))
 (let (($x3823 (= cell_9_6 5)))
 (let (($x3840 (= cell_9_6 4)))
 (let (($x701 (= cell_9_6 3)))
 (let (($x1231 (= cell_9_6 2)))
 (let (($x1244 (= cell_9_6 1)))
 (or $x1244 $x1231 $x701 $x3840 $x3823 $x6577 $x575 $x1832 $x2393)))))))))))
(assert
 (let (($x2470 (= cell_1_7 2)))
 (or (= cell_1_7 1) $x2470 (= cell_1_7 3) (= cell_1_7 4) (= cell_1_7 5) (= cell_1_7 6) (= cell_1_7 7) (= cell_1_7 8) (= cell_1_7 9))))
(assert
 (let (($x2426 (= cell_2_7 9)))
 (let (($x2817 (= cell_2_7 8)))
 (let (($x2414 (= cell_2_7 7)))
 (let (($x2259 (= cell_2_7 6)))
 (let (($x3079 (= cell_2_7 5)))
 (let (($x1730 (= cell_2_7 4)))
 (let (($x3287 (= cell_2_7 3)))
 (let (($x4068 (= cell_2_7 2)))
 (let (($x1183 (= cell_2_7 1)))
 (or $x1183 $x4068 $x3287 $x1730 $x3079 $x2259 $x2414 $x2817 $x2426)))))))))))
(assert
 (let (($x598 (= cell_3_7 9)))
 (let (($x1216 (= cell_3_7 8)))
 (let (($x7754 (= cell_3_7 7)))
 (let (($x2965 (= cell_3_7 6)))
 (let (($x4215 (= cell_3_7 5)))
 (let (($x794 (= cell_3_7 4)))
 (let (($x2839 (= cell_3_7 3)))
 (let (($x912 (= cell_3_7 2)))
 (let (($x950 (= cell_3_7 1)))
 (or $x950 $x912 $x2839 $x794 $x4215 $x2965 $x7754 $x1216 $x598)))))))))))
(assert
 (let (($x2507 (= cell_4_7 9)))
 (let (($x1501 (= cell_4_7 8)))
 (let (($x6942 (= cell_4_7 7)))
 (let (($x1883 (= cell_4_7 6)))
 (let (($x100 (= cell_4_7 5)))
 (let (($x633 (= cell_4_7 4)))
 (let (($x953 (= cell_4_7 3)))
 (let (($x3968 (= cell_4_7 2)))
 (let (($x2146 (= cell_4_7 1)))
 (or $x2146 $x3968 $x953 $x633 $x100 $x1883 $x6942 $x1501 $x2507)))))))))))
(assert
 (let (($x1473 (= cell_5_7 1)))
 (or $x1473 (= cell_5_7 2) (= cell_5_7 3) (= cell_5_7 4) (= cell_5_7 5) (= cell_5_7 6) (= cell_5_7 7) (= cell_5_7 8) (= cell_5_7 9))))
(assert
 (let (($x1997 (= cell_6_7 2)))
 (let (($x2674 (= cell_6_7 1)))
 (or $x2674 $x1997 (= cell_6_7 3) (= cell_6_7 4) (= cell_6_7 5) (= cell_6_7 6) (= cell_6_7 7) (= cell_6_7 8) (= cell_6_7 9)))))
(assert
 (let (($x1083 (= cell_7_7 9)))
 (let (($x3430 (= cell_7_7 8)))
 (let (($x4092 (= cell_7_7 7)))
 (let (($x1707 (= cell_7_7 6)))
 (let (($x3181 (= cell_7_7 5)))
 (let (($x1311 (= cell_7_7 4)))
 (let (($x1218 (= cell_7_7 3)))
 (let (($x7301 (= cell_7_7 2)))
 (let (($x2046 (= cell_7_7 1)))
 (or $x2046 $x7301 $x1218 $x1311 $x3181 $x1707 $x4092 $x3430 $x1083)))))))))))
(assert
 (let (($x4162 (= cell_8_7 9)))
 (let (($x2774 (= cell_8_7 8)))
 (let (($x2024 (= cell_8_7 7)))
 (let (($x2624 (= cell_8_7 6)))
 (let (($x1141 (= cell_8_7 5)))
 (let (($x4067 (= cell_8_7 4)))
 (let (($x3567 (= cell_8_7 3)))
 (let (($x1502 (= cell_8_7 2)))
 (let (($x1410 (= cell_8_7 1)))
 (or $x1410 $x1502 $x3567 $x4067 $x1141 $x2624 $x2024 $x2774 $x4162)))))))))))
(assert
 (let (($x2699 (= cell_9_7 9)))
 (let (($x2446 (= cell_9_7 8)))
 (let (($x1201 (= cell_9_7 7)))
 (let (($x430 (= cell_9_7 6)))
 (let (($x1549 (= cell_9_7 5)))
 (let (($x752 (= cell_9_7 4)))
 (let (($x2975 (= cell_9_7 3)))
 (let (($x2264 (= cell_9_7 2)))
 (let (($x3226 (= cell_9_7 1)))
 (or $x3226 $x2264 $x2975 $x752 $x1549 $x430 $x1201 $x2446 $x2699)))))))))))
(assert
 (let (($x1298 (= cell_1_8 1)))
 (or $x1298 (= cell_1_8 2) (= cell_1_8 3) (= cell_1_8 4) (= cell_1_8 5) (= cell_1_8 6) (= cell_1_8 7) (= cell_1_8 8) (= cell_1_8 9))))
(assert
 (let (($x1591 (= cell_2_8 2)))
 (let (($x350 (= cell_2_8 1)))
 (or $x350 $x1591 (= cell_2_8 3) (= cell_2_8 4) (= cell_2_8 5) (= cell_2_8 6) (= cell_2_8 7) (= cell_2_8 8) (= cell_2_8 9)))))
(assert
 (let (($x1358 (= cell_3_8 2)))
 (let (($x1974 (= cell_3_8 1)))
 (or $x1974 $x1358 (= cell_3_8 3) (= cell_3_8 4) (= cell_3_8 5) (= cell_3_8 6) (= cell_3_8 7) (= cell_3_8 8) (= cell_3_8 9)))))
(assert
 (let (($x2316 (= cell_4_8 9)))
 (let (($x6823 (= cell_4_8 8)))
 (let (($x7340 (= cell_4_8 7)))
 (let (($x3133 (= cell_4_8 6)))
 (let (($x1884 (= cell_4_8 5)))
 (let (($x709 (= cell_4_8 4)))
 (let (($x1052 (= cell_4_8 3)))
 (let (($x4097 (= cell_4_8 2)))
 (let (($x1565 (= cell_4_8 1)))
 (or $x1565 $x4097 $x1052 $x709 $x1884 $x3133 $x7340 $x6823 $x2316)))))))))))
(assert
 (let (($x2174 (= cell_5_8 9)))
 (let (($x2334 (= cell_5_8 8)))
 (let (($x2345 (= cell_5_8 7)))
 (let (($x1346 (= cell_5_8 6)))
 (let (($x828 (= cell_5_8 5)))
 (let (($x749 (= cell_5_8 4)))
 (let (($x3191 (= cell_5_8 3)))
 (let (($x2284 (= cell_5_8 2)))
 (let (($x2171 (= cell_5_8 1)))
 (or $x2171 $x2284 $x3191 $x749 $x828 $x1346 $x2345 $x2334 $x2174)))))))))))
(assert
 (let (($x2419 (= cell_6_8 2)))
 (let (($x313 (= cell_6_8 1)))
 (or $x313 $x2419 (= cell_6_8 3) (= cell_6_8 4) (= cell_6_8 5) (= cell_6_8 6) (= cell_6_8 7) (= cell_6_8 8) (= cell_6_8 9)))))
(assert
 (let (($x2942 (= cell_7_8 9)))
 (let (($x1079 (= cell_7_8 8)))
 (let (($x1644 (= cell_7_8 7)))
 (let (($x1612 (= cell_7_8 6)))
 (let (($x1137 (= cell_7_8 5)))
 (let (($x1940 (= cell_7_8 4)))
 (let (($x4210 (= cell_7_8 3)))
 (let (($x2462 (= cell_7_8 2)))
 (let (($x986 (= cell_7_8 1)))
 (or $x986 $x2462 $x4210 $x1940 $x1137 $x1612 $x1644 $x1079 $x2942)))))))))))
(assert
 (let (($x1735 (= cell_8_8 9)))
 (let (($x2280 (= cell_8_8 8)))
 (let (($x1081 (= cell_8_8 7)))
 (let (($x20 (= cell_8_8 6)))
 (let (($x926 (= cell_8_8 5)))
 (let (($x1379 (= cell_8_8 4)))
 (let (($x2789 (= cell_8_8 3)))
 (let (($x873 (= cell_8_8 2)))
 (let (($x7044 (= cell_8_8 1)))
 (or $x7044 $x873 $x2789 $x1379 $x926 $x20 $x1081 $x2280 $x1735)))))))))))
(assert
 (let (($x7865 (= cell_9_8 9)))
 (let (($x2569 (= cell_9_8 8)))
 (let (($x7770 (= cell_9_8 7)))
 (let (($x1581 (= cell_9_8 6)))
 (let (($x444 (= cell_9_8 5)))
 (let (($x6784 (= cell_9_8 4)))
 (let (($x2633 (= cell_9_8 3)))
 (let (($x7993 (= cell_9_8 2)))
 (let (($x79 (= cell_9_8 1)))
 (or $x79 $x7993 $x2633 $x6784 $x444 $x1581 $x7770 $x2569 $x7865)))))))))))
(assert
 (let (($x1766 (= cell_1_9 9)))
 (let (($x2776 (= cell_1_9 8)))
 (let (($x3737 (= cell_1_9 7)))
 (let (($x3292 (= cell_1_9 6)))
 (let (($x870 (= cell_1_9 5)))
 (let (($x1142 (= cell_1_9 4)))
 (let (($x93 (= cell_1_9 3)))
 (let (($x2402 (= cell_1_9 2)))
 (let (($x3985 (= cell_1_9 1)))
 (or $x3985 $x2402 $x93 $x1142 $x870 $x3292 $x3737 $x2776 $x1766)))))))))))
(assert
 (let (($x7839 (= cell_2_9 9)))
 (let (($x1414 (= cell_2_9 8)))
 (let (($x8009 (= cell_2_9 7)))
 (let (($x1656 (= cell_2_9 6)))
 (let (($x1282 (= cell_2_9 5)))
 (let (($x3490 (= cell_2_9 4)))
 (let (($x6828 (= cell_2_9 3)))
 (let (($x3698 (= cell_2_9 2)))
 (let (($x2045 (= cell_2_9 1)))
 (or $x2045 $x3698 $x6828 $x3490 $x1282 $x1656 $x8009 $x1414 $x7839)))))))))))
(assert
 (let (($x1009 (= cell_3_9 9)))
 (let (($x376 (= cell_3_9 8)))
 (let (($x3012 (= cell_3_9 7)))
 (let (($x91 (= cell_3_9 6)))
 (let (($x993 (= cell_3_9 5)))
 (let (($x1380 (= cell_3_9 4)))
 (let (($x1247 (= cell_3_9 3)))
 (let (($x3167 (= cell_3_9 2)))
 (let (($x622 (= cell_3_9 1)))
 (or $x622 $x3167 $x1247 $x1380 $x993 $x91 $x3012 $x376 $x1009)))))))))))
(assert
 (let (($x2283 (= cell_4_9 9)))
 (let (($x7835 (= cell_4_9 8)))
 (let (($x2547 (= cell_4_9 7)))
 (let (($x1834 (= cell_4_9 6)))
 (let (($x222 (= cell_4_9 5)))
 (let (($x675 (= cell_4_9 4)))
 (let (($x2574 (= cell_4_9 3)))
 (let (($x7367 (= cell_4_9 2)))
 (let (($x3156 (= cell_4_9 1)))
 (or $x3156 $x7367 $x2574 $x675 $x222 $x1834 $x2547 $x7835 $x2283)))))))))))
(assert
 (let (($x1555 (= cell_5_9 2)))
 (or (= cell_5_9 1) $x1555 (= cell_5_9 3) (= cell_5_9 4) (= cell_5_9 5) (= cell_5_9 6) (= cell_5_9 7) (= cell_5_9 8) (= cell_5_9 9))))
(assert
 (let (($x951 (= cell_6_9 9)))
 (let (($x3783 (= cell_6_9 8)))
 (let (($x3357 (= cell_6_9 7)))
 (let (($x3393 (= cell_6_9 6)))
 (let (($x3279 (= cell_6_9 5)))
 (let (($x3833 (= cell_6_9 4)))
 (let (($x3177 (= cell_6_9 3)))
 (let (($x252 (= cell_6_9 2)))
 (let (($x3872 (= cell_6_9 1)))
 (or $x3872 $x252 $x3177 $x3833 $x3279 $x3393 $x3357 $x3783 $x951)))))))))))
(assert
 (let (($x1064 (= cell_7_9 9)))
 (let (($x1409 (= cell_7_9 8)))
 (let (($x3255 (= cell_7_9 7)))
 (let (($x2914 (= cell_7_9 6)))
 (let (($x2138 (= cell_7_9 5)))
 (let (($x613 (= cell_7_9 4)))
 (let (($x920 (= cell_7_9 3)))
 (let (($x378 (= cell_7_9 2)))
 (let (($x1361 (= cell_7_9 1)))
 (or $x1361 $x378 $x920 $x613 $x2138 $x2914 $x3255 $x1409 $x1064)))))))))))
(assert
 (let (($x4207 (= cell_8_9 9)))
 (let (($x2685 (= cell_8_9 8)))
 (let (($x3795 (= cell_8_9 7)))
 (let (($x3087 (= cell_8_9 6)))
 (let (($x3231 (= cell_8_9 5)))
 (let (($x1806 (= cell_8_9 4)))
 (let (($x2090 (= cell_8_9 3)))
 (let (($x1383 (= cell_8_9 2)))
 (let (($x6985 (= cell_8_9 1)))
 (or $x6985 $x1383 $x2090 $x1806 $x3231 $x3087 $x3795 $x2685 $x4207)))))))))))
(assert
 (let (($x1412 (= cell_9_9 1)))
 (or $x1412 (= cell_9_9 2) (= cell_9_9 3) (= cell_9_9 4) (= cell_9_9 5) (= cell_9_9 6) (= cell_9_9 7) (= cell_9_9 8) (= cell_9_9 9))))
(assert
 (and (distinct cell_1_1 cell_1_2 cell_1_3 cell_1_4 cell_1_5 cell_1_6 cell_1_7 cell_1_8 cell_1_9) true))
(assert
 (and (distinct cell_2_1 cell_2_2 cell_2_3 cell_2_4 cell_2_5 cell_2_6 cell_2_7 cell_2_8 cell_2_9) true))
(assert
 (and (distinct cell_3_1 cell_3_2 cell_3_3 cell_3_4 cell_3_5 cell_3_6 cell_3_7 cell_3_8 cell_3_9) true))
(assert
 (and (distinct cell_4_1 cell_4_2 cell_4_3 cell_4_4 cell_4_5 cell_4_6 cell_4_7 cell_4_8 cell_4_9) true))
(assert
 (and (distinct cell_5_1 cell_5_2 cell_5_3 cell_5_4 cell_5_5 cell_5_6 cell_5_7 cell_5_8 cell_5_9) true))
(assert
 (and (distinct cell_6_1 cell_6_2 cell_6_3 cell_6_4 cell_6_5 cell_6_6 cell_6_7 cell_6_8 cell_6_9) true))
(assert
 (and (distinct cell_7_1 cell_7_2 cell_7_3 cell_7_4 cell_7_5 cell_7_6 cell_7_7 cell_7_8 cell_7_9) true))
(assert
 (and (distinct cell_8_1 cell_8_2 cell_8_3 cell_8_4 cell_8_5 cell_8_6 cell_8_7 cell_8_8 cell_8_9) true))
(assert
 (and (distinct cell_9_1 cell_9_2 cell_9_3 cell_9_4 cell_9_5 cell_9_6 cell_9_7 cell_9_8 cell_9_9) true))
(assert
 (and (distinct cell_1_1 cell_2_1 cell_3_1 cell_4_1 cell_5_1 cell_6_1 cell_7_1 cell_8_1 cell_9_1) true))
(assert
 (and (distinct cell_1_2 cell_2_2 cell_3_2 cell_4_2 cell_5_2 cell_6_2 cell_7_2 cell_8_2 cell_9_2) true))
(assert
 (and (distinct cell_1_3 cell_2_3 cell_3_3 cell_4_3 cell_5_3 cell_6_3 cell_7_3 cell_8_3 cell_9_3) true))
(assert
 (and (distinct cell_1_4 cell_2_4 cell_3_4 cell_4_4 cell_5_4 cell_6_4 cell_7_4 cell_8_4 cell_9_4) true))
(assert
 (and (distinct cell_1_5 cell_2_5 cell_3_5 cell_4_5 cell_5_5 cell_6_5 cell_7_5 cell_8_5 cell_9_5) true))
(assert
 (and (distinct cell_1_6 cell_2_6 cell_3_6 cell_4_6 cell_5_6 cell_6_6 cell_7_6 cell_8_6 cell_9_6) true))
(assert
 (and (distinct cell_1_7 cell_2_7 cell_3_7 cell_4_7 cell_5_7 cell_6_7 cell_7_7 cell_8_7 cell_9_7) true))
(assert
 (and (distinct cell_1_8 cell_2_8 cell_3_8 cell_4_8 cell_5_8 cell_6_8 cell_7_8 cell_8_8 cell_9_8) true))
(assert
 (and (distinct cell_1_9 cell_2_9 cell_3_9 cell_4_9 cell_5_9 cell_6_9 cell_7_9 cell_8_9 cell_9_9) true))
(assert
 (and (distinct cell_1_1 cell_1_2 cell_1_3 cell_2_1 cell_2_2 cell_2_3 cell_3_1 cell_3_2 cell_3_3) true))
(assert
 (and (distinct cell_1_4 cell_1_5 cell_1_6 cell_2_4 cell_2_5 cell_2_6 cell_3_4 cell_3_5 cell_3_6) true))
(assert
 (and (distinct cell_1_7 cell_1_8 cell_1_9 cell_2_7 cell_2_8 cell_2_9 cell_3_7 cell_3_8 cell_3_9) true))
(assert
 (and (distinct cell_4_1 cell_4_2 cell_4_3 cell_5_1 cell_5_2 cell_5_3 cell_6_1 cell_6_2 cell_6_3) true))
(assert
 (and (distinct cell_4_4 cell_4_5 cell_4_6 cell_5_4 cell_5_5 cell_5_6 cell_6_4 cell_6_5 cell_6_6) true))
(assert
 (and (distinct cell_4_7 cell_4_8 cell_4_9 cell_5_7 cell_5_8 cell_5_9 cell_6_7 cell_6_8 cell_6_9) true))
(assert
 (and (distinct cell_7_1 cell_7_2 cell_7_3 cell_8_1 cell_8_2 cell_8_3 cell_9_1 cell_9_2 cell_9_3) true))
(assert
 (and (distinct cell_7_4 cell_7_5 cell_7_6 cell_8_4 cell_8_5 cell_8_6 cell_9_4 cell_9_5 cell_9_6) true))
(assert
 (and (distinct cell_7_7 cell_7_8 cell_7_9 cell_8_7 cell_8_8 cell_8_9 cell_9_7 cell_9_8 cell_9_9) true))
(assert
 (let (($x8016 (and (distinct cell_5_9 cell_6_8 cell_7_7 cell_8_6) true)))
 (let (($x3988 (and (distinct cell_2_9 cell_3_8 cell_4_7 cell_5_6 cell_6_5 cell_7_4 cell_8_3 cell_9_2) true)))
 (let (($x4112 (and (distinct cell_1_8 cell_2_7 cell_3_6 cell_4_5 cell_5_4 cell_6_3 cell_7_2 cell_8_1) true)))
 (let (($x1478 (and (distinct cell_1_5 cell_2_4 cell_3_3 cell_4_2) true)))
 (let (($x796 (and (distinct cell_5_1 cell_6_2 cell_7_3 cell_8_4) true)))
 (let (($x254 (and (distinct cell_2_1 cell_3_2 cell_4_3 cell_5_4 cell_6_5 cell_7_6 cell_8_7 cell_9_8) true)))
 (let (($x3983 (and (distinct cell_1_2 cell_2_3 cell_3_4 cell_4_5 cell_5_6 cell_6_7 cell_7_8 cell_8_9) true)))
 (let (($x3656 (and (distinct cell_1_5 cell_2_6 cell_3_7 cell_4_8) true)))
 (and $x3656 $x3983 $x254 $x796 $x1478 $x4112 $x3988 $x8016))))))))))
(assert
 (= cell_8_3 2))
(check-sat)
